NAME : amtsp.156806.tour
COMMENT : Length = 156806
COMMENT : Found by LKH [Keld Helsgaun] Sat Dec 23 15:41:26 2023
TYPE : TOUR
DIMENSION : 90
TOUR_SECTION
1
3
5
83
81
82
85
7
10
6
8
9
59
58
56
57
60
53
55
51
54
52
38
36
40
37
39
75
68
66
67
24
19
18
16
17
20
25
22
21
23
70
34
32
31
33
35
47
49
46
50
48
90
88
86
87
80
65
62
61
63
64
77
76
78
89
79
43
44
41
45
42
74
73
71
72
69
28
26
30
27
29
14
13
11
15
12
4
84
2
-1
EOF
